70
1 0 63
2 0 7
2 1 63
3 0 73
3 1 33
3 2 34
4 0 1
4 1 78
4 2 35
4 3 58
5 0 58
5 1 48
5 2 73
5 3 38
5 4 71
6 0 8
6 1 31
6 2 20
6 3 62
6 4 13
6 5 73
7 0 24
7 1 64
7 2 45
7 3 26
7 4 10
7 5 31
7 6 14
8 0 40
8 1 3
8 2 15
8 3 48
8 4 54
8 5 80
8 6 15
8 7 42
9 0 73
9 1 38
9 2 62
9 3 74
9 4 29
9 5 53
9 6 44
9 7 45
9 8 73
10 0 64
10 1 47
10 2 31
10 3 26
10 4 10
10 5 46
10 6 78
10 7 6
10 8 55
10 9 50
11 0 58
11 1 27
11 2 26
11 3 8
11 4 75
11 5 67
11 6 20
11 7 52
11 8 56
11 9 59
11 10 6
12 0 5
12 1 6
12 2 38
12 3 38
12 4 70
12 5 36
12 6 34
12 7 40
12 8 69
12 9 50
12 10 61
12 11 37
13 0 53
13 1 17
13 2 61
13 3 61
13 4 21
13 5 34
13 6 54
13 7 12
13 8 8
13 9 10
13 10 54
13 11 28
13 12 5
14 0 8
14 1 52
14 2 67
14 3 47
14 4 41
14 5 60
14 6 40
14 7 37
14 8 14
14 9 1
14 10 13
14 11 30
14 12 19
14 13 43
15 0 29
15 1 12
15 2 18
15 3 71
15 4 76
15 5 7
15 6 43
15 7 62
15 8 15
15 9 4
15 10 80
15 11 19
15 12 42
15 13 6
15 14 72
16 0 68
16 1 20
16 2 67
16 3 57
16 4 41
16 5 59
16 6 76
16 7 35
16 8 15
16 9 67
16 10 10
16 11 11
16 12 25
16 13 53
16 14 63
16 15 25
17 0 72
17 1 79
17 2 31
17 3 76
17 4 53
17 5 70
17 6 50
17 7 50
17 8 27
17 9 19
17 10 39
17 11 67
17 12 35
17 13 34
17 14 46
17 15 34
17 16 70
18 0 14
18 1 12
18 2 75
18 3 19
18 4 36
18 5 13
18 6 8
18 7 51
18 8 76
18 9 63
18 10 74
18 11 36
18 12 29
18 13 36
18 14 73
18 15 36
18 16 50
18 17 32
19 0 43
19 1 70
19 2 67
19 3 19
19 4 78
19 5 60
19 6 40
19 7 72
19 8 55
19 9 30
19 10 19
19 11 9
19 12 24
19 13 56
19 14 17
19 15 27
19 16 80
19 17 14
19 18 71
20 0 45
20 1 26
20 2 16
20 3 70
20 4 52
20 5 1
20 6 18
20 7 66
20 8 75
20 9 36
20 10 18
20 11 76
20 12 30
20 13 56
20 14 8
20 15 26
20 16 38
20 17 16
20 18 2
20 19 16
21 0 57
21 1 59
21 2 7
21 3 76
21 4 15
21 5 17
21 6 45
21 7 27
21 8 57
21 9 8
21 10 57
21 11 30
21 12 63
21 13 78
21 14 72
21 15 60
21 16 62
21 17 25
21 18 38
21 19 58
21 20 40
22 0 30
22 1 64
22 2 76
22 3 12
22 4 6
22 5 8
22 6 55
22 7 73
22 8 73
22 9 24
22 10 10
22 11 76
22 12 48
22 13 71
22 14 9
22 15 51
22 16 68
22 17 37
22 18 24
22 19 4
22 20 24
22 21 49
23 0 37
23 1 15
23 2 74
23 3 7
23 4 59
23 5 38
23 6 7
23 7 48
23 8 55
23 9 36
23 10 7
23 11 53
23 12 70
23 13 57
23 14 9
23 15 21
23 16 75
23 17 41
23 18 55
23 19 19
23 20 41
23 21 46
23 22 14
24 0 64
24 1 56
24 2 7
24 3 64
24 4 40
24 5 43
24 6 71
24 7 34
24 8 37
24 9 73
24 10 16
24 11 74
24 12 68
24 13 70
24 14 57
24 15 68
24 16 70
24 17 23
24 18 44
24 19 68
24 20 53
24 21 6
24 22 44
24 23 80
25 0 77
25 1 60
25 2 7
25 3 76
25 4 36
25 5 77
25 6 75
25 7 43
25 8 78
25 9 6
25 10 26
25 11 39
25 12 27
25 13 6
25 14 80
25 15 78
25 16 4
25 17 41
25 18 67
25 19 41
25 20 34
25 21 6
25 22 45
25 23 20
25 24 72
26 0 70
26 1 36
26 2 57
26 3 29
26 4 77
26 5 7
26 6 44
26 7 1
26 8 27
26 9 51
26 10 66
26 11 70
26 12 30
26 13 11
26 14 73
26 15 6
26 16 65
26 17 56
26 18 3
26 19 46
26 20 34
26 21 64
26 22 4
26 23 65
26 24 8
26 25 80
27 0 73
27 1 46
27 2 73
27 3 44
27 4 2
27 5 80
27 6 41
27 7 6
27 8 30
27 9 39
27 10 73
27 11 5
27 12 10
27 13 4
27 14 26
27 15 67
27 16 10
27 17 18
27 18 62
27 19 39
27 20 42
27 21 56
27 22 55
27 23 44
27 24 18
27 25 12
27 26 43
28 0 58
28 1 20
28 2 14
28 3 28
28 4 73
28 5 79
28 6 2
28 7 50
28 8 7
28 9 70
28 10 50
28 11 71
28 12 2
28 13 10
28 14 25
28 15 11
28 16 76
28 17 40
28 18 75
28 19 56
28 20 29
28 21 18
28 22 29
28 23 26
28 24 69
28 25 40
28 26 59
28 27 43
29 0 48
29 1 27
29 2 63
29 3 50
29 4 52
29 5 43
29 6 3
29 7 61
29 8 47
29 9 7
29 10 70
29 11 78
29 12 71
29 13 29
29 14 63
29 15 17
29 16 1
29 17 61
29 18 8
29 19 49
29 20 31
29 21 67
29 22 13
29 23 56
29 24 28
29 25 75
29 26 56
29 27 10
29 28 13
30 0 66
30 1 71
30 2 13
30 3 32
30 4 10
30 5 29
30 6 13
30 7 24
30 8 17
30 9 8
30 10 44
30 11 11
30 12 79
30 13 78
30 14 16
30 15 28
30 16 66
30 17 31
30 18 10
30 19 20
30 20 36
30 21 36
30 22 79
30 23 43
30 24 43
30 25 22
30 26 57
30 27 62
30 28 36
30 29 49
31 0 18
31 1 52
31 2 16
31 3 74
31 4 23
31 5 53
31 6 54
31 7 25
31 8 57
31 9 53
31 10 62
31 11 28
31 12 41
31 13 21
31 14 62
31 15 27
31 16 66
31 17 78
31 18 25
31 19 58
31 20 50
31 21 65
31 22 53
31 23 58
31 24 40
31 25 43
31 26 14
31 27 21
31 28 15
31 29 71
31 30 20
32 0 71
32 1 34
32 2 33
32 3 77
32 4 17
32 5 31
32 6 57
32 7 25
32 8 5
32 9 71
32 10 28
32 11 66
32 12 31
32 13 79
32 14 48
32 15 62
32 16 47
32 17 56
32 18 65
32 19 36
32 20 66
32 21 73
32 22 12
32 23 6
32 24 41
32 25 68
32 26 71
32 27 30
32 28 79
32 29 46
32 30 47
32 31 79
33 0 6
33 1 22
33 2 61
33 3 1
33 4 6
33 5 51
33 6 74
33 7 44
33 8 34
33 9 17
33 10 7
33 11 1
33 12 72
33 13 57
33 14 13
33 15 37
33 16 25
33 17 62
33 18 61
33 19 30
33 20 71
33 21 30
33 22 29
33 23 39
33 24 76
33 25 11
33 26 67
33 27 61
33 28 43
33 29 12
33 30 67
33 31 32
33 32 70
34 0 73
34 1 50
34 2 55
34 3 14
34 4 67
34 5 3
34 6 76
34 7 78
34 8 6
34 9 2
34 10 72
34 11 3
34 12 61
34 13 58
34 14 27
34 15 38
34 16 8
34 17 9
34 18 48
34 19 53
34 20 34
34 21 59
34 22 57
34 23 15
34 24 61
34 25 65
34 26 65
34 27 57
34 28 80
34 29 7
34 30 19
34 31 52
34 32 1
34 33 75
35 0 54
35 1 77
35 2 22
35 3 54
35 4 3
35 5 41
35 6 48
35 7 17
35 8 72
35 9 64
35 10 38
35 11 20
35 12 67
35 13 69
35 14 56
35 15 67
35 16 79
35 17 71
35 18 39
35 19 3
35 20 40
35 21 60
35 22 23
35 23 67
35 24 67
35 25 28
35 26 73
35 27 53
35 28 11
35 29 57
35 30 54
35 31 6
35 32 78
35 33 5
35 34 54
36 0 52
36 1 19
36 2 35
36 3 47
36 4 80
36 5 10
36 6 39
36 7 24
36 8 22
36 9 22
36 10 37
36 11 38
36 12 4
36 13 48
36 14 55
36 15 63
36 16 80
36 17 32
36 18 80
36 19 35
36 20 74
36 21 64
36 22 64
36 23 21
36 24 14
36 25 44
36 26 63
36 27 25
36 28 21
36 29 56
36 30 54
36 31 5
36 32 35
36 33 60
36 34 11
36 35 28
37 0 31
37 1 32
37 2 6
37 3 59
37 4 28
37 5 59
37 6 68
37 7 8
37 8 34
37 9 49
37 10 76
37 11 30
37 12 55
37 13 57
37 14 38
37 15 73
37 16 35
37 17 22
37 18 21
37 19 71
37 20 74
37 21 51
37 22 36
37 23 48
37 24 76
37 25 5
37 26 80
37 27 56
37 28 44
37 29 37
37 30 35
37 31 56
37 32 40
37 33 4
37 34 51
37 35 20
37 36 32
38 0 75
38 1 51
38 2 76
38 3 46
38 4 21
38 5 61
38 6 77
38 7 72
38 8 33
38 9 29
38 10 28
38 11 48
38 12 29
38 13 21
38 14 8
38 15 27
38 16 15
38 17 35
38 18 28
38 19 22
38 20 22
38 21 50
38 22 79
38 23 75
38 24 69
38 25 77
38 26 67
38 27 77
38 28 71
38 29 58
38 30 13
38 31 13
38 32 16
38 33 69
38 34 2
38 35 37
38 36 55
38 37 65
39 0 68
39 1 50
39 2 79
39 3 69
39 4 15
39 5 63
39 6 45
39 7 1
39 8 37
39 9 24
39 10 41
39 11 13
39 12 35
39 13 31
39 14 34
39 15 74
39 16 29
39 17 35
39 18 76
39 19 46
39 20 16
39 21 23
39 22 7
39 23 64
39 24 44
39 25 45
39 26 24
39 27 30
39 28 63
39 29 64
39 30 72
39 31 64
39 32 67
39 33 29
39 34 31
39 35 47
39 36 50
39 37 1
39 38 55
40 0 67
40 1 65
40 2 53
40 3 28
40 4 4
40 5 55
40 6 73
40 7 31
40 8 42
40 9 15
40 10 10
40 11 8
40 12 62
40 13 36
40 14 27
40 15 7
40 16 53
40 17 15
40 18 14
40 19 34
40 20 21
40 21 11
40 22 40
40 23 51
40 24 66
40 25 10
40 26 51
40 27 76
40 28 1
40 29 40
40 30 25
40 31 62
40 32 45
40 33 5
40 34 45
40 35 63
40 36 75
40 37 61
40 38 29
40 39 61
41 0 49
41 1 58
41 2 62
41 3 4
41 4 8
41 5 24
41 6 54
41 7 40
41 8 62
41 9 33
41 10 47
41 11 2
41 12 21
41 13 22
41 14 1
41 15 25
41 16 64
41 17 17
41 18 24
41 19 20
41 20 67
41 21 12
41 22 11
41 23 1
41 24 74
41 25 16
41 26 69
41 27 11
41 28 44
41 29 12
41 30 42
41 31 59
41 32 33
41 33 77
41 34 16
41 35 59
41 36 41
41 37 39
41 38 78
41 39 5
41 40 60
42 0 4
42 1 63
42 2 63
42 3 13
42 4 52
42 5 62
42 6 71
42 7 70
42 8 65
42 9 1
42 10 4
42 11 34
42 12 34
42 13 61
42 14 50
42 15 2
42 16 10
42 17 46
42 18 72
42 19 67
42 20 79
42 21 67
42 22 2
42 23 48
42 24 44
42 25 57
42 26 17
42 27 69
42 28 52
42 29 38
42 30 36
42 31 60
42 32 25
42 33 51
42 34 38
42 35 14
42 36 66
42 37 51
42 38 64
42 39 66
42 40 60
42 41 48
43 0 15
43 1 15
43 2 39
43 3 57
43 4 60
43 5 51
43 6 48
43 7 18
43 8 49
43 9 33
43 10 78
43 11 69
43 12 60
43 13 53
43 14 59
43 15 43
43 16 47
43 17 19
43 18 19
43 19 26
43 20 21
43 21 65
43 22 58
43 23 17
43 24 69
43 25 33
43 26 31
43 27 15
43 28 68
43 29 36
43 30 71
43 31 39
43 32 42
43 33 78
43 34 63
43 35 11
43 36 34
43 37 59
43 38 10
43 39 23
43 40 61
43 41 76
43 42 27
44 0 51
44 1 31
44 2 25
44 3 17
44 4 13
44 5 71
44 6 30
44 7 33
44 8 4
44 9 73
44 10 31
44 11 1
44 12 20
44 13 53
44 14 18
44 15 72
44 16 22
44 17 10
44 18 79
44 19 2
44 20 7
44 21 60
44 22 44
44 23 73
44 24 22
44 25 32
44 26 62
44 27 68
44 28 49
44 29 59
44 30 48
44 31 54
44 32 9
44 33 50
44 34 74
44 35 6
44 36 63
44 37 2
44 38 10
44 39 75
44 40 73
44 41 41
44 42 48
44 43 79
45 0 42
45 1 30
45 2 51
45 3 59
45 4 23
45 5 72
45 6 45
45 7 62
45 8 21
45 9 34
45 10 73
45 11 46
45 12 60
45 13 10
45 14 17
45 15 42
45 16 63
45 17 54
45 18 29
45 19 71
45 20 41
45 21 23
45 22 74
45 23 58
45 24 58
45 25 50
45 26 62
45 27 12
45 28 26
45 29 63
45 30 63
45 31 41
45 32 22
45 33 22
45 34 61
45 35 5
45 36 55
45 37 44
45 38 40
45 39 40
45 40 50
45 41 60
45 42 60
45 43 33
45 44 10
46 0 46
46 1 66
46 2 27
46 3 44
46 4 33
46 5 45
46 6 8
46 7 67
46 8 21
46 9 16
46 10 57
46 11 64
46 12 80
46 13 40
46 14 63
46 15 22
46 16 79
46 17 65
46 18 28
46 19 51
46 20 19
46 21 17
46 22 55
46 23 24
46 24 35
46 25 65
46 26 19
46 27 3
46 28 48
46 29 69
46 30 1
46 31 15
46 32 20
46 33 14
46 34 68
46 35 17
46 36 30
46 37 14
46 38 44
46 39 11
46 40 31
46 41 39
46 42 60
46 43 60
46 44 80
46 45 63
47 0 75
47 1 58
47 2 64
47 3 40
47 4 9
47 5 76
47 6 57
47 7 36
47 8 78
47 9 64
47 10 67
47 11 48
47 12 44
47 13 79
47 14 25
47 15 40
47 16 55
47 17 32
47 18 80
47 19 78
47 20 74
47 21 7
47 22 38
47 23 23
47 24 38
47 25 3
47 26 27
47 27 65
47 28 42
47 29 51
47 30 78
47 31 65
47 32 75
47 33 80
47 34 18
47 35 6
47 36 10
47 37 25
47 38 44
47 39 21
47 40 63
47 41 7
47 42 67
47 43 32
47 44 38
47 45 78
47 46 55
48 0 67
48 1 41
48 2 25
48 3 79
48 4 42
48 5 48
48 6 68
48 7 2
48 8 38
48 9 5
48 10 6
48 11 47
48 12 67
48 13 51
48 14 23
48 15 51
48 16 67
48 17 21
48 18 18
48 19 42
48 20 40
48 21 30
48 22 67
48 23 80
48 24 11
48 25 28
48 26 55
48 27 19
48 28 51
48 29 34
48 30 76
48 31 69
48 32 29
48 33 11
48 34 78
48 35 43
48 36 8
48 37 3
48 38 75
48 39 52
48 40 20
48 41 25
48 42 10
48 43 20
48 44 29
48 45 41
48 46 49
48 47 79
49 0 51
49 1 39
49 2 57
49 3 10
49 4 78
49 5 31
49 6 14
49 7 45
49 8 54
49 9 15
49 10 15
49 11 37
49 12 2
49 13 5
49 14 56
49 15 13
49 16 19
49 17 58
49 18 24
49 19 8
49 20 28
49 21 28
49 22 2
49 23 17
49 24 30
49 25 80
49 26 64
49 27 3
49 28 51
49 29 25
49 30 10
49 31 18
49 32 73
49 33 8
49 34 28
49 35 37
49 36 18
49 37 10
49 38 67
49 39 71
49 40 78
49 41 1
49 42 49
49 43 38
49 44 79
49 45 22
49 46 22
49 47 9
49 48 63
50 0 69
50 1 42
50 2 10
50 3 60
50 4 48
50 5 30
50 6 52
50 7 33
50 8 39
50 9 72
50 10 10
50 11 65
50 12 67
50 13 20
50 14 50
50 15 55
50 16 41
50 17 4
50 18 77
50 19 2
50 20 77
50 21 54
50 22 57
50 23 6
50 24 50
50 25 65
50 26 54
50 27 2
50 28 79
50 29 27
50 30 21
50 31 66
50 32 38
50 33 46
50 34 79
50 35 77
50 36 51
50 37 18
50 38 77
50 39 79
50 40 60
50 41 59
50 42 8
50 43 28
50 44 32
50 45 62
50 46 39
50 47 55
50 48 70
50 49 11
51 0 72
51 1 42
51 2 38
51 3 18
51 4 61
51 5 27
51 6 67
51 7 76
51 8 63
51 9 11
51 10 12
51 11 54
51 12 9
51 13 10
51 14 55
51 15 41
51 16 68
51 17 17
51 18 5
51 19 22
51 20 5
51 21 22
51 22 15
51 23 48
51 24 68
51 25 33
51 26 64
51 27 22
51 28 1
51 29 63
51 30 3
51 31 58
51 32 29
51 33 56
51 34 37
51 35 12
51 36 51
51 37 70
51 38 31
51 39 65
51 40 64
51 41 20
51 42 49
51 43 38
51 44 4
51 45 61
51 46 65
51 47 71
51 48 51
51 49 65
51 50 6
52 0 80
52 1 57
52 2 33
52 3 45
52 4 13
52 5 34
52 6 22
52 7 12
52 8 38
52 9 18
52 10 33
52 11 36
52 12 14
52 13 5
52 14 58
52 15 63
52 16 50
52 17 58
52 18 72
52 19 65
52 20 23
52 21 69
52 22 47
52 23 1
52 24 67
52 25 15
52 26 47
52 27 12
52 28 15
52 29 71
52 30 35
52 31 32
52 32 10
52 33 33
52 34 66
52 35 75
52 36 69
52 37 2
52 38 60
52 39 69
52 40 54
52 41 69
52 42 74
52 43 5
52 44 37
52 45 26
52 46 33
52 47 23
52 48 60
52 49 9
52 50 16
52 51 31
53 0 58
53 1 14
53 2 11
53 3 57
53 4 11
53 5 30
53 6 45
53 7 79
53 8 20
53 9 55
53 10 48
53 11 19
53 12 79
53 13 27
53 14 61
53 15 41
53 16 25
53 17 68
53 18 43
53 19 37
53 20 14
53 21 22
53 22 1
53 23 15
53 24 47
53 25 78
53 26 46
53 27 56
53 28 77
53 29 42
53 30 42
53 31 80
53 32 28
53 33 74
53 34 77
53 35 55
53 36 36
53 37 78
53 38 21
53 39 37
53 40 48
53 41 45
53 42 4
53 43 9
53 44 80
53 45 14
53 46 45
53 47 48
53 48 58
53 49 2
53 50 57
53 51 48
53 52 51
54 0 31
54 1 14
54 2 40
54 3 1
54 4 18
54 5 40
54 6 46
54 7 38
54 8 11
54 9 78
54 10 7
54 11 56
54 12 11
54 13 56
54 14 35
54 15 71
54 16 71
54 17 13
54 18 38
54 19 77
54 20 30
54 21 14
54 22 62
54 23 77
54 24 10
54 25 14
54 26 39
54 27 25
54 28 39
54 29 5
54 30 70
54 31 44
54 32 42
54 33 2
54 34 70
54 35 2
54 36 46
54 37 22
54 38 11
54 39 47
54 40 47
54 41 32
54 42 43
54 43 1
54 44 52
54 45 73
54 46 72
54 47 11
54 48 32
54 49 11
54 50 47
54 51 45
54 52 21
54 53 32
55 0 15
55 1 46
55 2 59
55 3 39
55 4 30
55 5 53
55 6 74
55 7 41
55 8 63
55 9 46
55 10 31
55 11 62
55 12 22
55 13 15
55 14 61
55 15 20
55 16 20
55 17 15
55 18 67
55 19 68
55 20 45
55 21 49
55 22 78
55 23 42
55 24 29
55 25 58
55 26 5
55 27 66
55 28 75
55 29 49
55 30 43
55 31 48
55 32 27
55 33 62
55 34 66
55 35 62
55 36 20
55 37 15
55 38 54
55 39 46
55 40 47
55 41 1
55 42 73
55 43 49
55 44 60
55 45 55
55 46 51
55 47 36
55 48 23
55 49 11
55 50 4
55 51 74
55 52 52
55 53 27
55 54 18
56 0 14
56 1 25
56 2 42
56 3 55
56 4 5
56 5 13
56 6 55
56 7 43
56 8 41
56 9 14
56 10 12
56 11 32
56 12 7
56 13 64
56 14 42
56 15 47
56 16 56
56 17 22
56 18 11
56 19 16
56 20 7
56 21 20
56 22 65
56 23 5
56 24 73
56 25 1
56 26 49
56 27 44
56 28 18
56 29 36
56 30 76
56 31 80
56 32 58
56 33 34
56 34 9
56 35 13
56 36 19
56 37 21
56 38 7
56 39 51
56 40 10
56 41 46
56 42 29
56 43 45
56 44 55
56 45 27
56 46 73
56 47 79
56 48 54
56 49 34
56 50 55
56 51 35
56 52 45
56 53 44
56 54 25
56 55 66
57 0 15
57 1 47
57 2 49
57 3 55
57 4 60
57 5 53
57 6 42
57 7 26
57 8 44
57 9 34
57 10 15
57 11 33
57 12 61
57 13 45
57 14 28
57 15 3
57 16 9
57 17 11
57 18 45
57 19 32
57 20 31
57 21 57
57 22 50
57 23 44
57 24 7
57 25 9
57 26 15
57 27 59
57 28 47
57 29 17
57 30 62
57 31 44
57 32 53
57 33 26
57 34 23
57 35 61
57 36 23
57 37 77
57 38 71
57 39 41
57 40 3
57 41 79
57 42 80
57 43 20
57 44 36
57 45 43
57 46 44
57 47 60
57 48 17
57 49 15
57 50 63
57 51 74
57 52 4
57 53 14
57 54 27
57 55 19
57 56 57
58 0 69
58 1 34
58 2 11
58 3 25
58 4 35
58 5 11
58 6 50
58 7 1
58 8 61
58 9 30
58 10 77
58 11 65
58 12 75
58 13 77
58 14 8
58 15 73
58 16 54
58 17 57
58 18 30
58 19 70
58 20 66
58 21 61
58 22 40
58 23 50
58 24 50
58 25 26
58 26 74
58 27 73
58 28 26
58 29 50
58 30 12
58 31 70
58 32 39
58 33 65
58 34 35
58 35 72
58 36 78
58 37 78
58 38 4
58 39 48
58 40 34
58 41 50
58 42 14
58 43 75
58 44 74
58 45 20
58 46 61
58 47 57
58 48 64
58 49 67
58 50 15
58 51 71
58 52 4
58 53 36
58 54 46
58 55 37
58 56 70
58 57 15
59 0 74
59 1 1
59 2 80
59 3 19
59 4 39
59 5 73
59 6 3
59 7 64
59 8 9
59 9 74
59 10 3
59 11 79
59 12 34
59 13 71
59 14 66
59 15 11
59 16 2
59 17 22
59 18 78
59 19 13
59 20 16
59 21 14
59 22 30
59 23 50
59 24 59
59 25 71
59 26 60
59 27 69
59 28 64
59 29 11
59 30 60
59 31 38
59 32 4
59 33 52
59 34 13
59 35 51
59 36 34
59 37 42
59 38 56
59 39 25
59 40 23
59 41 62
59 42 19
59 43 28
59 44 61
59 45 65
59 46 25
59 47 70
59 48 51
59 49 70
59 50 58
59 51 41
59 52 3
59 53 49
59 54 79
59 55 40
59 56 51
59 57 29
59 58 25
60 0 40
60 1 33
60 2 59
60 3 30
60 4 65
60 5 79
60 6 58
60 7 69
60 8 24
60 9 3
60 10 21
60 11 57
60 12 9
60 13 42
60 14 6
60 15 35
60 16 15
60 17 37
60 18 18
60 19 3
60 20 76
60 21 55
60 22 46
60 23 26
60 24 67
60 25 61
60 26 28
60 27 59
60 28 34
60 29 75
60 30 14
60 31 65
60 32 34
60 33 76
60 34 37
60 35 9
60 36 57
60 37 65
60 38 12
60 39 7
60 40 15
60 41 15
60 42 68
60 43 19
60 44 19
60 45 67
60 46 6
60 47 56
60 48 72
60 49 17
60 50 23
60 51 62
60 52 11
60 53 15
60 54 41
60 55 26
60 56 68
60 57 47
60 58 11
60 59 7
61 0 29
61 1 6
61 2 5
61 3 1
61 4 60
61 5 15
61 6 3
61 7 35
61 8 1
61 9 77
61 10 26
61 11 54
61 12 10
61 13 34
61 14 50
61 15 25
61 16 31
61 17 45
61 18 7
61 19 15
61 20 50
61 21 68
61 22 69
61 23 73
61 24 17
61 25 36
61 26 32
61 27 50
61 28 66
61 29 33
61 30 42
61 31 69
61 32 49
61 33 58
61 34 79
61 35 16
61 36 78
61 37 2
61 38 8
61 39 68
61 40 23
61 41 11
61 42 35
61 43 22
61 44 16
61 45 75
61 46 76
61 47 57
61 48 27
61 49 17
61 50 66
61 51 2
61 52 50
61 53 26
61 54 77
61 55 27
61 56 30
61 57 1
61 58 3
61 59 24
61 60 4
62 0 53
62 1 22
62 2 4
62 3 23
62 4 62
62 5 45
62 6 8
62 7 39
62 8 34
62 9 47
62 10 66
62 11 19
62 12 12
62 13 78
62 14 14
62 15 16
62 16 33
62 17 50
62 18 71
62 19 29
62 20 38
62 21 72
62 22 22
62 23 56
62 24 44
62 25 9
62 26 23
62 27 53
62 28 39
62 29 54
62 30 48
62 31 12
62 32 22
62 33 64
62 34 62
62 35 52
62 36 12
62 37 36
62 38 65
62 39 68
62 40 21
62 41 17
62 42 51
62 43 7
62 44 72
62 45 3
62 46 21
62 47 80
62 48 77
62 49 22
62 50 70
62 51 48
62 52 4
62 53 12
62 54 64
62 55 46
62 56 29
62 57 60
62 58 27
62 59 30
62 60 41
62 61 33
63 0 63
63 1 47
63 2 40
63 3 45
63 4 15
63 5 46
63 6 64
63 7 64
63 8 56
63 9 25
63 10 22
63 11 63
63 12 27
63 13 1
63 14 20
63 15 67
63 16 74
63 17 77
63 18 2
63 19 61
63 20 12
63 21 41
63 22 46
63 23 7
63 24 14
63 25 28
63 26 32
63 27 55
63 28 18
63 29 34
63 30 52
63 31 49
63 32 5
63 33 80
63 34 75
63 35 33
63 36 29
63 37 75
63 38 44
63 39 49
63 40 21
63 41 12
63 42 77
63 43 55
63 44 50
63 45 45
63 46 74
63 47 80
63 48 73
63 49 28
63 50 22
63 51 46
63 52 50
63 53 18
63 54 44
63 55 25
63 56 49
63 57 68
63 58 79
63 59 38
63 60 67
63 61 63
63 62 21
64 0 25
64 1 40
64 2 49
64 3 26
64 4 9
64 5 18
64 6 2
64 7 2
64 8 10
64 9 10
64 10 8
64 11 40
64 12 18
64 13 62
64 14 80
64 15 33
64 16 6
64 17 26
64 18 59
64 19 41
64 20 23
64 21 37
64 22 2
64 23 17
64 24 70
64 25 65
64 26 6
64 27 7
64 28 63
64 29 6
64 30 73
64 31 37
64 32 51
64 33 72
64 34 55
64 35 41
64 36 50
64 37 34
64 38 73
64 39 46
64 40 26
64 41 68
64 42 62
64 43 49
64 44 7
64 45 42
64 46 62
64 47 73
64 48 70
64 49 34
64 50 32
64 51 48
64 52 73
64 53 3
64 54 52
64 55 38
64 56 57
64 57 77
64 58 46
64 59 15
64 60 72
64 61 58
64 62 9
64 63 79
65 0 16
65 1 60
65 2 72
65 3 27
65 4 48
65 5 23
65 6 73
65 7 11
65 8 19
65 9 75
65 10 2
65 11 39
65 12 57
65 13 79
65 14 73
65 15 16
65 16 70
65 17 49
65 18 60
65 19 29
65 20 27
65 21 65
65 22 65
65 23 64
65 24 6
65 25 44
65 26 71
65 27 15
65 28 1
65 29 36
65 30 76
65 31 10
65 32 38
65 33 7
65 34 58
65 35 45
65 36 61
65 37 53
65 38 75
65 39 14
65 40 32
65 41 49
65 42 33
65 43 58
65 44 55
65 45 44
65 46 32
65 47 43
65 48 55
65 49 24
65 50 58
65 51 36
65 52 55
65 53 23
65 54 42
65 55 11
65 56 70
65 57 27
65 58 73
65 59 27
65 60 59
65 61 49
65 62 56
65 63 49
65 64 22
66 0 34
66 1 73
66 2 61
66 3 23
66 4 70
66 5 77
66 6 48
66 7 19
66 8 70
66 9 43
66 10 17
66 11 17
66 12 65
66 13 49
66 14 47
66 15 31
66 16 68
66 17 14
66 18 25
66 19 64
66 20 68
66 21 42
66 22 64
66 23 13
66 24 18
66 25 27
66 26 9
66 27 35
66 28 20
66 29 54
66 30 42
66 31 6
66 32 53
66 33 63
66 34 15
66 35 20
66 36 51
66 37 30
66 38 50
66 39 38
66 40 22
66 41 42
66 42 1
66 43 35
66 44 35
66 45 57
66 46 29
66 47 80
66 48 33
66 49 24
66 50 4
66 51 47
66 52 58
66 53 58
66 54 31
66 55 37
66 56 14
66 57 4
66 58 13
66 59 53
66 60 73
66 61 58
66 62 18
66 63 40
66 64 80
66 65 61
67 0 62
67 1 79
67 2 73
67 3 32
67 4 57
67 5 46
67 6 73
67 7 30
67 8 23
67 9 73
67 10 10
67 11 3
67 12 2
67 13 66
67 14 75
67 15 5
67 16 27
67 17 35
67 18 68
67 19 42
67 20 57
67 21 19
67 22 11
67 23 42
67 24 13
67 25 44
67 26 50
67 27 46
67 28 17
67 29 52
67 30 64
67 31 54
67 32 75
67 33 44
67 34 68
67 35 43
67 36 37
67 37 7
67 38 22
67 39 30
67 40 19
67 41 78
67 42 36
67 43 44
67 44 72
67 45 71
67 46 77
67 47 43
67 48 28
67 49 52
67 50 67
67 51 28
67 52 52
67 53 21
67 54 71
67 55 18
67 56 61
67 57 21
67 58 62
67 59 20
67 60 8
67 61 47
67 62 43
67 63 18
67 64 44
67 65 6
67 66 55
68 0 73
68 1 43
68 2 8
68 3 16
68 4 44
68 5 75
68 6 14
68 7 66
68 8 16
68 9 26
68 10 27
68 11 48
68 12 31
68 13 51
68 14 64
68 15 62
68 16 72
68 17 9
68 18 2
68 19 2
68 20 5
68 21 38
68 22 26
68 23 1
68 24 40
68 25 34
68 26 54
68 27 55
68 28 30
68 29 68
68 30 17
68 31 54
68 32 58
68 33 43
68 34 51
68 35 61
68 36 80
68 37 25
68 38 51
68 39 29
68 40 30
68 41 47
68 42 71
68 43 36
68 44 18
68 45 4
68 46 16
68 47 20
68 48 58
68 49 71
68 50 14
68 51 65
68 52 57
68 53 48
68 54 7
68 55 12
68 56 13
68 57 54
68 58 2
68 59 53
68 60 60
68 61 23
68 62 40
68 63 74
68 64 52
68 65 77
68 66 5
68 67 11
69 0 31
69 1 79
69 2 44
69 3 65
69 4 21
69 5 63
69 6 12
69 7 34
69 8 3
69 9 53
69 10 20
69 11 14
69 12 37
69 13 48
69 14 70
69 15 8
69 16 9
69 17 8
69 18 10
69 19 8
69 20 50
69 21 6
69 22 70
69 23 52
69 24 4
69 25 39
69 26 66
69 27 30
69 28 18
69 29 3
69 30 36
69 31 46
69 32 19
69 33 20
69 34 38
69 35 37
69 36 22
69 37 63
69 38 7
69 39 60
69 40 46
69 41 50
69 42 72
69 43 60
69 44 31
69 45 48
69 46 20
69 47 21
69 48 65
69 49 41
69 50 49
69 51 60
69 52 15
69 53 47
69 54 1
69 55 48
69 56 34
69 57 10
69 58 63
69 59 55
69 60 21
69 61 54
69 62 4
69 63 23
69 64 37
69 65 71
69 66 65
69 67 3
69 68 35
